(set-logic ALL)
(declare-fun var0 () String)
(assert (str.in_re var0 (re.++ (re.union (re.+ (str.to_re "0")) (re.+ (str.to_re "1"))) (re.++ (re.union (re.* (str.to_re "2")) (re.* (str.to_re "333"))) (re.++ (re.union (re.union (str.to_re "4") (str.to_re "55")) (re.union (str.to_re "6") (str.to_re "7"))) (re.++ (re.+ (re.* (str.to_re "88"))) (re.++ (re.union (re.* (str.to_re "999")) (re.* (str.to_re "a"))) (re.++ (re.union (re.+ (str.to_re "b")) (re.+ (str.to_re "ccc"))) (re.++ (re.+ (re.+ (str.to_re "dd"))) (re.union (re.+ (str.to_re "e")) (re.+ (str.to_re "fff"))))))))))))
(check-sat)